eval/18-encs/equiv_enc_274.smt2
; SHA3 PUSH 0x00 ADD DUP2 SWAP1 => DUP3 SWAP2 SWAP1 SHA3
(set-option :produce-proofs true)
; 
(set-info :status unknown)
(declare-fun storage_t ((_ BitVec 256) (_ BitVec 256) (_ BitVec 256) (_ BitVec 256) Int (_ BitVec 256)) (_ BitVec 256))
(declare-fun storage_s ((_ BitVec 256) (_ BitVec 256) (_ BitVec 256) (_ BitVec 256) Int (_ BitVec 256)) (_ BitVec 256))
(declare-fun exc_halt_t (Int) Bool)
(declare-fun exc_halt_s (Int) Bool)
(declare-fun stack_t ((_ BitVec 256) (_ BitVec 256) (_ BitVec 256) (_ BitVec 256) Int (_ BitVec 6)) (_ BitVec 256))
(declare-fun stack_s ((_ BitVec 256) (_ BitVec 256) (_ BitVec 256) (_ BitVec 256) Int (_ BitVec 6)) (_ BitVec 256))
(declare-fun sc_t (Int) (_ BitVec 6))
(declare-fun sc_s (Int) (_ BitVec 6))
(declare-fun used_gas_t ((_ BitVec 256) (_ BitVec 256) (_ BitVec 256) (_ BitVec 256) Int) Int)
(declare-fun used_gas_s ((_ BitVec 256) (_ BitVec 256) (_ BitVec 256) (_ BitVec 256) Int) Int)
(declare-fun f_SHA3 ((_ BitVec 256) (_ BitVec 256) (_ BitVec 256) (_ BitVec 256) (_ BitVec 256) (_ BitVec 256)) (_ BitVec 256))
(assert
 (exists ((x_0 (_ BitVec 256)) (x_1 (_ BitVec 256)) (x_2 (_ BitVec 256)) (x_SHA3_0 (_ BitVec 256)) )(let (($x2694 (forall ((w (_ BitVec 256)) )(let ((?x3435 (storage_t x_0 x_1 x_2 x_SHA3_0 4 w)))
 (let ((?x9949 (storage_s x_0 x_1 x_2 x_SHA3_0 5 w)))
 (= ?x9949 ?x3435))))
 ))
 (let (($x3723 (exc_halt_t 4)))
 (let (($x3979 (exc_halt_s 5)))
 (let (($x7567 (= $x3979 $x3723)))
 (let (($x1162 (forall ((n (_ BitVec 6)) )(let ((?x6860 (stack_t x_0 x_1 x_2 x_SHA3_0 4 n)))
 (let ((?x5843 (stack_s x_0 x_1 x_2 x_SHA3_0 5 n)))
 (let (($x11743 (= ?x5843 ?x6860)))
 (let ((?x3757 (sc_t 4)))
 (let (($x8252 (bvsle ?x3757 n)))
 (or $x8252 $x11743)))))))
 ))
 (let ((?x3757 (sc_t 4)))
 (let ((?x805 (sc_s 5)))
 (let (($x9143 (= ?x805 ?x3757)))
 (let ((?x3348 (used_gas_t x_0 x_1 x_2 x_SHA3_0 0)))
 (let ((?x11599 (used_gas_s x_0 x_1 x_2 x_SHA3_0 0)))
 (let (($x10371 (= ?x11599 ?x3348)))
 (let (($x6098 (forall ((w (_ BitVec 256)) )(let ((?x10443 (storage_t x_0 x_1 x_2 x_SHA3_0 0 w)))
 (let ((?x300 (storage_s x_0 x_1 x_2 x_SHA3_0 0 w)))
 (= ?x300 ?x10443))))
 ))
 (let (($x56 (exc_halt_t 0)))
 (let (($x57 (exc_halt_s 0)))
 (let (($x58 (= $x57 $x56)))
 (let (($x7763 (forall ((n (_ BitVec 6)) )(let ((?x63 (sc_t 0)))
 (let (($x4036 (bvsle ?x63 n)))
 (let ((?x8090 (stack_t x_0 x_1 x_2 x_SHA3_0 0 n)))
 (let ((?x10362 (stack_s x_0 x_1 x_2 x_SHA3_0 0 n)))
 (let (($x2699 (= ?x10362 ?x8090)))
 (or $x2699 $x4036)))))))
 ))
 (let ((?x63 (sc_t 0)))
 (let ((?x72 (sc_s 0)))
 (let (($x73 (= ?x72 ?x63)))
 (let (($x2363 (= $x3723 (or (exc_halt_t 3) (not (bvsle (_ bv0 6) (bvadd (_ bv62 6) (sc_t 3))))))))
 (let (($x3965 (forall ((w (_ BitVec 256)) )(let ((?x5451 (storage_t x_0 x_1 x_2 x_SHA3_0 3 w)))
 (let ((?x3435 (storage_t x_0 x_1 x_2 x_SHA3_0 4 w)))
 (= ?x3435 ?x5451))))
 ))
 (let (($x2784 (forall ((n (_ BitVec 6)) )(let ((?x6714 (stack_t x_0 x_1 x_2 x_SHA3_0 3 n)))
 (let ((?x6860 (stack_t x_0 x_1 x_2 x_SHA3_0 4 n)))
 (let ((?x6378 (sc_t 3)))
 (let ((?x10950 (bvadd (_ bv62 6) ?x6378)))
 (let (($x3793 (bvsle ?x10950 n)))
 (or $x3793 (= ?x6860 ?x6714))))))))
 ))
 (let ((?x6378 (sc_t 3)))
 (let ((?x8958 (bvadd (_ bv63 6) ?x6378)))
 (let (($x3843 (= ?x3757 ?x8958)))
 (let (($x3888 (= (used_gas_t x_0 x_1 x_2 x_SHA3_0 4) (+ 30 (used_gas_t x_0 x_1 x_2 x_SHA3_0 3)))))
 (let ((?x10950 (bvadd (_ bv62 6) ?x6378)))
 (let ((?x520 (stack_t x_0 x_1 x_2 x_SHA3_0 3 ?x10950)))
 (let ((?x11628 (stack_t x_0 x_1 x_2 x_SHA3_0 3 ?x8958)))
 (let (($x4834 (= (stack_t x_0 x_1 x_2 x_SHA3_0 4 (bvadd (_ bv63 6) ?x3757)) (f_SHA3 x_0 x_1 x_2 x_SHA3_0 ?x11628 ?x520))))
 (let (($x8009 (exc_halt_t 3)))
 (let (($x8537 (= $x8009 (or (exc_halt_t 2) (not (bvsle (_ bv0 6) (bvadd (_ bv62 6) (sc_t 2))))))))
 (let (($x7857 (forall ((w (_ BitVec 256)) )(let ((?x1239 (storage_t x_0 x_1 x_2 x_SHA3_0 2 w)))
 (let ((?x5451 (storage_t x_0 x_1 x_2 x_SHA3_0 3 w)))
 (= ?x5451 ?x1239))))
 ))
 (let (($x952 (forall ((n (_ BitVec 6)) )(let ((?x3442 (stack_t x_0 x_1 x_2 x_SHA3_0 2 n)))
 (let ((?x6714 (stack_t x_0 x_1 x_2 x_SHA3_0 3 n)))
 (let ((?x4056 (sc_t 2)))
 (let ((?x5216 (bvadd (_ bv62 6) ?x4056)))
 (let (($x1315 (bvsle ?x5216 n)))
 (or $x1315 (= ?x6714 ?x3442))))))))
 ))
 (let ((?x4056 (sc_t 2)))
 (let (($x1817 (= ?x6378 ?x4056)))
 (let ((?x2592 (used_gas_t x_0 x_1 x_2 x_SHA3_0 3)))
 (let (($x11469 (= ?x2592 (+ 3 (used_gas_t x_0 x_1 x_2 x_SHA3_0 2)))))
 (let (($x903 (exc_halt_t 2)))
 (let (($x5872 (= $x903 (or (exc_halt_t 1) (not (bvsle (_ bv0 6) (bvadd (_ bv61 6) (sc_t 1))))))))
 (let (($x11770 (forall ((w (_ BitVec 256)) )(let ((?x9602 (storage_t x_0 x_1 x_2 x_SHA3_0 1 w)))
 (let ((?x1239 (storage_t x_0 x_1 x_2 x_SHA3_0 2 w)))
 (= ?x1239 ?x9602))))
 ))
 (let (($x7743 (forall ((n (_ BitVec 6)) )(let ((?x5794 (stack_t x_0 x_1 x_2 x_SHA3_0 1 n)))
 (let ((?x3442 (stack_t x_0 x_1 x_2 x_SHA3_0 2 n)))
 (let (($x11333 (= ?x3442 ?x5794)))
 (or (bvsle (bvadd (_ bv61 6) (sc_t 1)) n) $x11333)))))
 ))
 (let ((?x4023 (sc_t 1)))
 (let (($x10103 (= ?x4056 ?x4023)))
 (let ((?x4339 (used_gas_t x_0 x_1 x_2 x_SHA3_0 2)))
 (let (($x7015 (= ?x4339 (+ 3 (used_gas_t x_0 x_1 x_2 x_SHA3_0 1)))))
 (let ((?x10753 (bvadd (_ bv62 6) ?x4023)))
 (let ((?x2864 (stack_t x_0 x_1 x_2 x_SHA3_0 1 ?x10753)))
 (let ((?x5216 (bvadd (_ bv62 6) ?x4056)))
 (let ((?x3445 (stack_t x_0 x_1 x_2 x_SHA3_0 2 ?x5216)))
 (let ((?x7819 (bvadd (_ bv63 6) ?x4023)))
 (let ((?x622 (stack_t x_0 x_1 x_2 x_SHA3_0 1 ?x7819)))
 (let ((?x7965 (bvadd (_ bv61 6) ?x4023)))
 (let ((?x7580 (stack_t x_0 x_1 x_2 x_SHA3_0 1 ?x7965)))
 (let ((?x2982 (bvadd (_ bv63 6) ?x4056)))
 (let ((?x4932 (stack_t x_0 x_1 x_2 x_SHA3_0 2 ?x2982)))
 (let (($x5983 (not (= ((_ extract 6 6) (bvadd (_ bv1 7) (concat (_ bv0 1) ?x63))) (_ bv0 1)))))
 (let (($x1920 (exc_halt_t 1)))
 (let (($x6809 (= $x1920 (or $x56 $x5983 (not (bvsle (_ bv0 6) (bvadd (_ bv61 6) ?x63)))))))
 (let (($x2598 (forall ((w (_ BitVec 256)) )(let ((?x10443 (storage_t x_0 x_1 x_2 x_SHA3_0 0 w)))
 (let ((?x9602 (storage_t x_0 x_1 x_2 x_SHA3_0 1 w)))
 (= ?x9602 ?x10443))))
 ))
 (let (($x2811 (forall ((n (_ BitVec 6)) )(let ((?x8090 (stack_t x_0 x_1 x_2 x_SHA3_0 0 n)))
 (let ((?x5794 (stack_t x_0 x_1 x_2 x_SHA3_0 1 n)))
 (or (= ?x5794 ?x8090) (bvsle (bvadd (_ bv61 6) (sc_t 0)) n)))))
 ))
 (let (($x7805 (= ?x4023 (bvadd (_ bv1 6) ?x63))))
 (let ((?x8585 (used_gas_t x_0 x_1 x_2 x_SHA3_0 1)))
 (let (($x9428 (= ?x8585 (+ 3 ?x3348))))
 (let (($x11388 (= (stack_t x_0 x_1 x_2 x_SHA3_0 1 (bvadd (_ bv63 6) ?x63)) (stack_t x_0 x_1 x_2 x_SHA3_0 0 (bvadd (_ bv63 6) ?x63)))))
 (let (($x10576 (= (stack_t x_0 x_1 x_2 x_SHA3_0 1 (bvadd (_ bv62 6) ?x63)) (stack_t x_0 x_1 x_2 x_SHA3_0 0 (bvadd (_ bv62 6) ?x63)))))
 (let ((?x10630 (bvadd (_ bv61 6) ?x63)))
 (let ((?x9561 (stack_t x_0 x_1 x_2 x_SHA3_0 0 ?x10630)))
 (let (($x5386 (= (stack_t x_0 x_1 x_2 x_SHA3_0 1 ?x10630) ?x9561)))
 (let (($x9869 (= ?x622 ?x9561)))
 (let (($x8110 (= $x3979 (or (exc_halt_s 4) (not (bvsle (_ bv0 6) (bvadd (_ bv62 6) (sc_s 4))))))))
 (let (($x1659 (forall ((w (_ BitVec 256)) )(let ((?x8728 (storage_s x_0 x_1 x_2 x_SHA3_0 4 w)))
 (let ((?x9949 (storage_s x_0 x_1 x_2 x_SHA3_0 5 w)))
 (= ?x9949 ?x8728))))
 ))
 (let (($x2029 (forall ((n (_ BitVec 6)) )(let ((?x4305 (sc_s 4)))
 (let ((?x6694 (bvadd (_ bv62 6) ?x4305)))
 (let (($x10150 (bvsle ?x6694 n)))
 (let ((?x9327 (stack_s x_0 x_1 x_2 x_SHA3_0 4 n)))
 (let ((?x5843 (stack_s x_0 x_1 x_2 x_SHA3_0 5 n)))
 (or (= ?x5843 ?x9327) $x10150)))))))
 ))
 (let ((?x4305 (sc_s 4)))
 (let (($x5649 (= ?x805 ?x4305)))
 (let ((?x9362 (used_gas_s x_0 x_1 x_2 x_SHA3_0 5)))
 (let (($x11413 (= ?x9362 (+ 3 (used_gas_s x_0 x_1 x_2 x_SHA3_0 4)))))
 (let ((?x7778 (bvadd (_ bv63 6) ?x4305)))
 (let ((?x10220 (stack_s x_0 x_1 x_2 x_SHA3_0 4 ?x7778)))
 (let ((?x6694 (bvadd (_ bv62 6) ?x4305)))
 (let ((?x7810 (stack_s x_0 x_1 x_2 x_SHA3_0 4 ?x6694)))
 (let ((?x2686 (bvadd (_ bv63 6) ?x805)))
 (let ((?x11443 (stack_s x_0 x_1 x_2 x_SHA3_0 5 ?x2686)))
 (let (($x4599 (not (bvsle (_ bv0 6) (bvadd (_ bv62 6) (sc_s 3))))))
 (let (($x1360 (not (= ((_ extract 6 6) (bvadd (_ bv1 7) (concat (_ bv0 1) (sc_s 3)))) (_ bv0 1)))))
 (let (($x292 (exc_halt_s 3)))
 (let (($x64 (exc_halt_s 4)))
 (let (($x6650 (= $x64 (or $x292 $x1360 $x4599))))
 (let (($x1037 (forall ((w (_ BitVec 256)) )(let ((?x10636 (storage_s x_0 x_1 x_2 x_SHA3_0 3 w)))
 (let ((?x8728 (storage_s x_0 x_1 x_2 x_SHA3_0 4 w)))
 (= ?x8728 ?x10636))))
 ))
 (let (($x795 (forall ((n (_ BitVec 6)) )(let ((?x275 (sc_s 3)))
 (let ((?x10770 (bvadd (_ bv62 6) ?x275)))
 (let (($x6326 (bvsle ?x10770 n)))
 (let ((?x9513 (stack_s x_0 x_1 x_2 x_SHA3_0 3 n)))
 (let ((?x9327 (stack_s x_0 x_1 x_2 x_SHA3_0 4 n)))
 (or (= ?x9327 ?x9513) $x6326)))))))
 ))
 (let (($x6010 (= ?x4305 (bvadd (_ bv1 6) (sc_s 3)))))
 (let ((?x9025 (used_gas_s x_0 x_1 x_2 x_SHA3_0 4)))
 (let (($x10819 (= ?x9025 (+ 3 (used_gas_s x_0 x_1 x_2 x_SHA3_0 3)))))
 (let ((?x275 (sc_s 3)))
 (let ((?x7617 (bvadd (_ bv63 6) ?x275)))
 (let ((?x11427 (stack_s x_0 x_1 x_2 x_SHA3_0 3 ?x7617)))
 (let ((?x10770 (bvadd (_ bv62 6) ?x275)))
 (let ((?x6772 (stack_s x_0 x_1 x_2 x_SHA3_0 3 ?x10770)))
 (let (($x1454 (= $x292 (or (exc_halt_s 2) (not (bvsle (_ bv0 6) (bvadd (_ bv62 6) (sc_s 2))))))))
 (let (($x11683 (forall ((w (_ BitVec 256)) )(let ((?x8753 (storage_s x_0 x_1 x_2 x_SHA3_0 2 w)))
 (let ((?x10636 (storage_s x_0 x_1 x_2 x_SHA3_0 3 w)))
 (= ?x10636 ?x8753))))
 ))
 (let (($x4217 (forall ((n (_ BitVec 6)) )(let ((?x218 (sc_s 2)))
 (let ((?x2028 (bvadd (_ bv62 6) ?x218)))
 (let (($x9852 (bvsle ?x2028 n)))
 (let ((?x2890 (stack_s x_0 x_1 x_2 x_SHA3_0 2 n)))
 (let ((?x9513 (stack_s x_0 x_1 x_2 x_SHA3_0 3 n)))
 (let (($x3692 (= ?x9513 ?x2890)))
 (or $x3692 $x9852))))))))
 ))
 (let ((?x218 (sc_s 2)))
 (let ((?x3337 (bvadd (_ bv63 6) ?x218)))
 (let (($x4124 (= ?x275 ?x3337)))
 (let ((?x9368 (used_gas_s x_0 x_1 x_2 x_SHA3_0 3)))
 (let (($x5313 (= ?x9368 (+ 3 (used_gas_s x_0 x_1 x_2 x_SHA3_0 2)))))
 (let ((?x2028 (bvadd (_ bv62 6) ?x218)))
 (let ((?x8944 (stack_s x_0 x_1 x_2 x_SHA3_0 2 ?x2028)))
 (let ((?x3245 (stack_s x_0 x_1 x_2 x_SHA3_0 2 ?x3337)))
 (let (($x9045 (not (= ((_ extract 6 6) (bvadd (_ bv1 7) (concat (_ bv0 1) (sc_s 1)))) (_ bv0 1)))))
 (let (($x189 (exc_halt_s 1)))
 (let (($x247 (exc_halt_s 2)))
 (let (($x11832 (forall ((w (_ BitVec 256)) )(let ((?x11748 (storage_s x_0 x_1 x_2 x_SHA3_0 1 w)))
 (let ((?x8753 (storage_s x_0 x_1 x_2 x_SHA3_0 2 w)))
 (= ?x8753 ?x11748))))
 ))
 (let (($x262 (forall ((n (_ BitVec 6)) )(let ((?x11713 (stack_s x_0 x_1 x_2 x_SHA3_0 1 n)))
 (let ((?x2890 (stack_s x_0 x_1 x_2 x_SHA3_0 2 n)))
 (let (($x5408 (= ?x2890 ?x11713)))
 (or (bvsle (sc_s 1) n) $x5408)))))
 ))
 (let (($x2524 (= ?x218 (bvadd (_ bv1 6) (sc_s 1)))))
 (let ((?x5780 (used_gas_s x_0 x_1 x_2 x_SHA3_0 2)))
 (let (($x3987 (= ?x5780 (+ 3 (used_gas_s x_0 x_1 x_2 x_SHA3_0 1)))))
 (let (($x7482 (= $x189 (or $x57 (not (bvsle (_ bv0 6) (bvadd (_ bv62 6) ?x72)))))))
 (let (($x1738 (forall ((w (_ BitVec 256)) )(let ((?x300 (storage_s x_0 x_1 x_2 x_SHA3_0 0 w)))
 (let ((?x11748 (storage_s x_0 x_1 x_2 x_SHA3_0 1 w)))
 (= ?x11748 ?x300))))
 ))
 (let (($x2829 (forall ((n (_ BitVec 6)) )(let ((?x72 (sc_s 0)))
 (let ((?x74 (bvadd (_ bv62 6) ?x72)))
 (let (($x7031 (bvsle ?x74 n)))
 (let ((?x10362 (stack_s x_0 x_1 x_2 x_SHA3_0 0 n)))
 (let ((?x11713 (stack_s x_0 x_1 x_2 x_SHA3_0 1 n)))
 (let (($x1300 (= ?x11713 ?x10362)))
 (or $x1300 $x7031))))))))
 ))
 (let ((?x5742 (bvadd (_ bv63 6) ?x72)))
 (let ((?x154 (sc_s 1)))
 (let (($x1876 (= ?x154 ?x5742)))
 (let ((?x944 (f_SHA3 x_0 x_1 x_2 x_SHA3_0 (stack_s x_0 x_1 x_2 x_SHA3_0 0 ?x5742) (stack_s x_0 x_1 x_2 x_SHA3_0 0 (bvadd (_ bv62 6) ?x72)))))
 (let ((?x1693 (bvadd (_ bv63 6) ?x154)))
 (let ((?x11522 (stack_s x_0 x_1 x_2 x_SHA3_0 1 ?x1693)))
 (let (($x5079 (forall ((w0 (_ BitVec 256)) (w1 (_ BitVec 256)) )(let (($x5008 (= (stack_s x_0 x_1 x_2 x_SHA3_0 0 (bvadd (_ bv62 6) (sc_s 0))) w1)))
 (let (($x9899 (= (stack_s x_0 x_1 x_2 x_SHA3_0 0 (bvadd (_ bv63 6) (sc_s 0))) w0)))
 (let ((?x2445 (f_SHA3 x_0 x_1 x_2 x_SHA3_0 w0 w1)))
 (= ?x2445 (ite (and $x9899 $x5008) x_SHA3_0 (_ bv0 256)))))))
 ))
 (let (($x3914 (forall ((w (_ BitVec 256)) )(let ((?x300 (storage_s x_0 x_1 x_2 x_SHA3_0 0 w)))
 (= ?x300 (_ bv0 256))))
 ))
 (let (($x5565 (= ?x11599 0)))
 (let (($x4562 (not $x57)))
 (let (($x8719 (= (stack_s x_0 x_1 x_2 x_SHA3_0 0 (_ bv2 6)) x_2)))
 (let (($x1170 (= (stack_s x_0 x_1 x_2 x_SHA3_0 0 (_ bv1 6)) x_1)))
 (let (($x7988 (= (stack_s x_0 x_1 x_2 x_SHA3_0 0 (_ bv0 6)) x_0)))
 (let (($x6735 (= ?x72 (_ bv3 6))))
 (and $x6735 $x7988 $x1170 $x8719 $x4562 $x5565 $x3914 $x5079 (= ?x11522 ?x944) (= (used_gas_s x_0 x_1 x_2 x_SHA3_0 1) (+ 30 ?x11599)) $x1876 $x2829 $x1738 $x7482 (= (stack_s x_0 x_1 x_2 x_SHA3_0 2 ?x154) (_ bv0 256)) $x3987 $x2524 $x262 $x11832 (= $x247 (or $x189 $x9045)) (= ?x11427 (bvadd ?x3245 ?x8944)) $x5313 $x4124 $x4217 $x11683 $x1454 (= ?x10220 ?x6772) (= (stack_s x_0 x_1 x_2 x_SHA3_0 4 ?x10770) ?x6772) (= (stack_s x_0 x_1 x_2 x_SHA3_0 4 ?x7617) ?x11427) $x10819 $x6010 $x795 $x1037 $x6650 (= ?x11443 ?x7810) (= (stack_s x_0 x_1 x_2 x_SHA3_0 5 (bvadd (_ bv62 6) ?x805)) ?x10220) $x11413 $x5649 $x2029 $x1659 $x8110 $x9869 $x5386 $x10576 $x11388 $x9428 $x7805 $x2811 $x2598 $x6809 (= ?x4932 ?x7580) (= (stack_t x_0 x_1 x_2 x_SHA3_0 2 (bvadd (_ bv61 6) ?x4056)) ?x622) (= ?x3445 ?x2864) $x7015 $x10103 $x7743 $x11770 $x5872 (= ?x11628 ?x3445) (= ?x520 ?x4932) $x11469 $x1817 $x952 $x7857 $x8537 $x4834 $x3888 $x3843 $x2784 $x3965 $x2363 $x73 $x7763 $x58 $x6098 $x10371 (not (and $x9143 $x1162 $x7567 $x2694))))))))))))))))))))))))))))))))))))))))))))))))))))))))))))))))))))))))))))))))))))))))))))))))))))))))))))))))))))))))))))))))))))))))))
 )
(check-sat)
(get-proof)
